
-9.8
-9.0
-8.9
-8.8
-8.8
-8.7
-8.7
-8.5
-8.5
-8.5
-8.5
-8.5
-8.2
-8.2
-8.2
-8.1
-8.1
-8.1
-8.1
-8.1
-9.6
-9.0
-8.9
-8.8
-8.8
-8.8
-8.5
-8.2
-8.1
-8.1
-8.0
-8.0
-8.0
-7.9
-7.9
-7.9
-7.9
-7.7
-7.7
-7.7
-7.7
-7.7
-7.7
-7.7
-7.7
-7.7
-7.7
-7.7